set VV := 0 1 2 3 4 5 6 7 8 9 10 11 12 13 14 15 16 17 18 19 20 21 22 23 24 25 26 ;
set VS := 0 1 2 3 4 5 6 7 8 9 10 11 12 13 14 15 16 17 18 19 20 21 22 23 24 25 26 27 28 29 30 31 32 33 34 35 36 37 38 39 40 41 42 43 44 45 46 47 48 49 50 51 52 53 54 55 56 57 58 ;
param cv := 
0 15
1 21
2 12
3 10
4 24
5 15
6 20
7 24
8 19
9 18
10 17
11 21
12 15
13 14
14 11
15 17
16 19
17 24
18 25
19 12
20 24
21 22
22 11
23 20
24 19
25 15
26 11
;
param cs := 
0 34
1 32
2 21
3 21
4 35
5 40
6 40
7 26
8 23
9 22
10 34
11 38
12 32
13 24
14 32
15 38
16 24
17 36
18 40
19 30
20 31
21 29
22 36
23 35
24 26
25 33
26 25
27 40
28 37
29 27
30 22
31 35
32 30
33 23
34 30
35 34
36 38
37 31
38 30
39 22
40 37
41 27
42 29
43 34
44 20
45 31
46 35
47 40
48 40
49 34
50 33
51 39
52 33
53 26
54 25
55 33
56 35
57 26
58 39
;
param bv:	 0 1 2 3 4 5 6 7 8 9 10 11 12 13 14 15 16 17 18 19 20 21 22 23 24 25 26 := 
		0 0 16 0 0 0 0 0 0 0 17 21 0 0 0 0 0 0 0 0 24 0 0 0 15 0 0 0 
		1 0 0 0 0 0 0 0 0 0 0 0 0 0 0 0 25 0 0 18 21 0 0 0 0 0 0 0 
		2 0 0 0 0 16 0 0 0 0 0 0 0 0 0 0 0 0 0 0 13 0 20 0 15 0 0 0 
		3 0 0 0 0 0 0 0 0 0 0 0 0 18 0 0 0 0 0 16 0 0 0 0 0 0 0 0 
		4 0 0 0 0 0 0 0 0 0 0 0 0 13 0 0 0 0 0 0 0 11 16 0 0 0 0 0 
		5 0 0 0 0 0 0 0 20 0 0 12 0 22 0 17 0 0 0 25 0 0 11 0 0 0 0 10 
		6 0 0 0 0 0 0 0 0 10 13 0 0 0 0 0 0 11 0 0 0 0 0 0 0 0 0 0 
		7 0 0 0 0 0 0 0 0 0 0 0 0 0 0 13 0 11 0 0 0 0 0 0 0 0 0 10 
		8 0 0 0 0 0 0 0 0 0 0 0 11 0 0 15 0 0 16 0 23 0 0 0 0 22 0 0 
		9 0 0 0 0 0 0 0 0 0 0 0 0 23 0 0 0 0 0 0 0 0 0 0 0 0 0 0 
		10 0 0 0 0 0 0 0 0 0 0 0 0 0 11 12 0 11 0 0 0 0 24 13 0 0 0 0 
		11 0 0 0 0 0 0 0 0 0 0 0 0 0 0 0 10 0 0 0 0 0 0 0 0 0 16 0 
		12 0 0 0 0 0 0 0 0 0 0 0 0 0 0 0 0 0 18 25 0 0 0 0 0 0 0 0 
		13 0 0 0 0 0 0 0 0 0 0 0 0 0 0 0 0 19 0 0 0 0 0 13 0 18 0 11 
		14 0 0 0 0 0 0 0 0 0 0 0 0 0 0 0 0 0 0 0 25 0 0 0 0 0 24 0 
		15 0 0 0 0 0 0 0 0 0 0 0 0 0 0 0 0 0 0 24 0 10 17 0 0 0 0 0 
		16 0 0 0 0 0 0 0 0 0 0 0 0 0 0 0 0 0 0 0 0 0 0 10 0 0 0 24 
		17 0 0 0 0 0 0 0 0 0 0 0 0 0 0 0 0 0 0 0 0 0 0 0 0 0 0 0 
		18 0 0 0 0 0 0 0 0 0 0 0 0 0 0 0 0 0 0 0 21 0 0 0 0 24 0 0 
		19 0 0 0 0 0 0 0 0 0 0 0 0 0 0 0 0 0 0 0 0 0 0 0 0 22 0 0 
		20 0 0 0 0 0 0 0 0 0 0 0 0 0 0 0 0 0 0 0 0 0 16 0 0 0 0 0 
		21 0 0 0 0 0 0 0 0 0 0 0 0 0 0 0 0 0 0 0 0 0 0 0 0 0 0 0 
		22 0 0 0 0 0 0 0 0 0 0 0 0 0 0 0 0 0 0 0 0 0 0 0 0 0 0 0 
		23 0 0 0 0 0 0 0 0 0 0 0 0 0 0 0 0 0 0 0 0 0 0 0 0 0 0 0 
		24 0 0 0 0 0 0 0 0 0 0 0 0 0 0 0 0 0 0 0 0 0 0 0 0 0 0 0 
		25 0 0 0 0 0 0 0 0 0 0 0 0 0 0 0 0 0 0 0 0 0 0 0 0 0 0 0 
		26 0 0 0 0 0 0 0 0 0 0 0 0 0 0 0 0 0 0 0 0 0 0 0 0 0 0 0 
;
param bs:	 0 1 2 3 4 5 6 7 8 9 10 11 12 13 14 15 16 17 18 19 20 21 22 23 24 25 26 27 28 29 30 31 32 33 34 35 36 37 38 39 40 41 42 43 44 45 46 47 48 49 50 51 52 53 54 55 56 57 58 := 
		0 0 0 0 26 0 0 0 0 0 0 0 0 0 0 0 0 0 0 0 0 0 0 0 0 0 0 0 32 0 30 0 0 0 0 0 35 0 0 0 0 24 0 0 0 0 0 0 0 0 0 0 0 0 0 0 0 0 0 0 
		1 0 0 0 0 0 0 35 0 0 0 0 0 20 0 0 0 0 0 0 0 0 0 0 0 0 0 0 0 0 0 0 0 0 40 0 0 0 0 0 0 0 0 0 0 0 0 0 39 0 0 0 0 0 0 0 0 0 0 0 
		2 0 0 0 0 27 0 0 0 0 0 0 25 0 0 0 0 0 0 0 0 0 0 0 0 0 0 0 0 0 0 21 0 0 0 0 0 35 0 0 0 0 0 0 0 0 0 0 0 0 0 0 35 0 0 0 0 0 0 0 
		3 26 0 0 0 0 0 0 0 0 0 0 0 0 0 0 0 0 0 0 0 35 0 0 0 0 0 0 30 39 0 0 0 0 0 0 0 0 0 0 0 0 0 0 0 0 0 0 0 0 0 20 0 0 0 0 0 0 0 0 
		4 0 0 27 0 0 0 0 0 0 0 0 29 0 0 0 33 0 0 0 0 0 0 0 0 0 0 0 0 24 0 0 34 23 0 0 0 23 0 0 0 0 0 0 28 0 0 0 0 0 0 0 23 0 0 26 0 0 0 0 
		5 0 0 0 0 0 0 0 31 0 0 0 0 24 0 0 0 0 0 0 0 0 0 0 0 0 0 0 28 0 0 0 0 28 0 0 0 0 0 0 0 0 0 0 0 0 23 0 0 0 0 30 0 0 0 0 0 0 0 24 
		6 0 35 0 0 0 0 0 0 0 0 0 0 0 24 0 26 0 0 0 0 0 0 0 0 0 33 0 22 0 0 0 0 0 0 39 0 0 0 0 0 0 0 29 0 0 34 0 0 0 0 0 0 0 0 0 0 0 0 0 
		7 0 0 0 0 0 31 0 0 0 0 0 0 0 0 0 0 0 39 0 0 0 30 0 23 0 0 0 0 0 0 0 0 0 0 0 0 0 0 0 27 0 0 0 0 0 0 0 0 0 0 0 0 24 0 0 0 0 0 35 
		8 0 0 0 0 0 0 0 0 0 0 0 0 21 0 36 0 0 0 0 22 0 23 0 0 0 0 0 0 0 0 31 0 0 0 0 0 0 0 0 37 0 0 38 0 39 0 24 0 0 0 0 0 0 0 0 33 0 0 33 
		9 0 0 0 0 0 0 0 0 0 0 0 0 0 0 0 0 0 0 0 0 0 0 0 0 0 0 0 0 0 0 0 0 0 0 0 0 0 0 0 0 35 0 0 0 0 0 20 0 0 0 0 0 0 0 0 0 0 27 0 
		10 0 0 0 0 0 0 0 0 0 0 0 0 0 0 0 0 0 0 0 0 0 0 0 0 0 23 0 0 40 0 0 0 0 0 0 0 0 0 0 0 21 0 0 0 0 0 0 0 0 0 0 0 0 0 0 0 0 0 0 
		11 0 0 25 0 29 0 0 0 0 0 0 0 0 0 0 0 0 0 0 0 0 26 0 0 0 0 0 0 0 0 0 0 0 0 0 0 20 0 0 0 0 0 28 0 0 0 0 0 0 0 0 0 0 0 0 39 0 0 0 
		12 0 20 0 0 0 24 0 0 21 0 0 0 0 0 0 0 30 29 0 0 0 34 0 0 0 0 0 0 0 0 40 0 0 0 0 0 0 0 0 0 0 0 0 0 0 24 0 23 0 24 0 0 0 0 0 0 0 0 0 
		13 0 0 0 0 0 0 24 0 0 0 0 0 0 0 0 0 0 0 0 0 0 0 0 0 0 0 0 0 0 0 0 0 0 0 0 0 0 0 35 0 0 0 0 0 0 0 0 0 0 0 0 0 0 0 0 0 0 0 0 
		14 0 0 0 0 0 0 0 0 36 0 0 0 0 0 0 0 0 0 0 0 0 0 0 0 21 0 0 0 0 0 22 0 0 0 0 0 0 0 0 0 0 0 0 0 0 0 0 21 0 0 0 0 0 0 0 0 0 0 0 
		15 0 0 0 0 33 0 26 0 0 0 0 0 0 0 0 0 0 0 0 0 0 0 0 0 0 0 0 0 36 0 0 0 0 32 0 0 0 0 0 0 26 0 0 0 0 0 32 0 0 0 0 0 0 0 0 0 0 0 0 
		16 0 0 0 0 0 0 0 0 0 0 0 0 30 0 0 0 0 0 0 0 27 0 0 0 0 0 0 0 0 24 0 0 0 0 0 0 0 0 0 0 0 0 0 0 0 0 0 0 0 0 0 0 0 0 0 0 0 0 0 
		17 0 0 0 0 0 0 0 39 0 0 0 0 29 0 0 0 0 0 0 21 0 0 0 28 0 0 0 0 0 0 0 0 23 0 0 0 0 0 0 0 0 0 0 0 0 0 0 0 30 0 0 0 0 0 0 0 0 0 0 
		18 0 0 0 0 0 0 0 0 0 0 0 0 0 0 0 0 0 0 0 0 0 0 0 0 0 0 0 0 0 40 28 0 0 0 0 23 36 0 0 0 0 27 0 0 0 24 0 0 0 0 0 0 34 0 30 0 0 0 0 
		19 0 0 0 0 0 0 0 0 22 0 0 0 0 0 0 0 0 21 0 0 0 0 0 22 0 0 0 0 0 0 0 0 0 0 0 0 0 0 0 0 0 0 0 0 0 0 0 0 0 0 0 0 0 0 0 0 0 0 34 
		20 0 0 0 35 0 0 0 0 0 0 0 0 0 0 0 0 27 0 0 0 0 0 0 0 0 0 0 27 0 0 0 0 0 23 0 0 37 23 0 0 0 0 0 0 0 0 0 0 0 21 0 0 0 0 0 0 0 0 0 
		21 0 0 0 0 0 0 0 30 23 0 0 26 34 0 0 0 0 0 0 0 0 0 0 0 0 0 0 0 0 0 0 26 0 0 0 0 0 0 0 0 0 0 0 0 0 0 0 0 0 0 0 0 0 0 22 0 0 0 0 
		22 0 0 0 0 0 0 0 0 0 0 0 0 0 0 0 0 0 0 0 0 0 0 0 0 0 0 0 0 0 0 0 0 0 0 0 0 0 0 0 0 0 0 0 0 37 0 34 0 0 0 0 0 0 0 0 0 0 0 0 
		23 0 0 0 0 0 0 0 23 0 0 0 0 0 0 0 0 0 28 0 22 0 0 0 0 0 0 39 0 0 0 26 0 0 0 0 0 0 0 0 0 0 0 0 0 0 0 0 0 0 0 0 0 0 27 0 0 0 0 0 
		24 0 0 0 0 0 0 0 0 0 0 0 0 0 0 21 0 0 0 0 0 0 0 0 0 0 0 0 0 0 35 0 0 0 0 36 0 0 0 0 0 0 0 0 0 0 0 32 0 0 0 0 0 0 0 0 0 0 0 0 
		25 0 0 0 0 0 0 33 0 0 0 23 0 0 0 0 0 0 0 0 0 0 0 0 0 0 0 0 0 21 26 0 0 0 23 0 40 0 0 0 29 0 0 0 0 0 0 0 32 0 0 0 0 0 0 0 0 0 0 0 
		26 0 0 0 0 0 0 0 0 0 0 0 0 0 0 0 0 0 0 0 0 0 0 0 39 0 0 0 0 0 0 0 0 0 0 0 0 0 0 0 0 0 0 0 0 31 0 23 0 0 0 0 0 0 0 0 0 0 0 0 
		27 32 0 0 30 0 28 22 0 0 0 0 0 0 0 0 0 0 0 0 0 27 0 0 0 0 0 0 0 26 0 0 0 0 25 0 0 0 0 0 0 0 0 0 0 0 0 31 0 0 0 0 0 0 0 0 0 0 0 0 
		28 0 0 0 39 24 0 0 0 0 0 40 0 0 0 0 36 0 0 0 0 0 0 0 0 0 21 0 26 0 0 34 0 0 0 0 30 0 0 0 26 21 36 0 0 0 0 35 0 0 27 29 25 0 0 0 0 0 0 0 
		29 30 0 0 0 0 0 0 0 0 0 0 0 0 0 0 0 24 0 40 0 0 0 0 0 35 26 0 0 0 0 20 0 0 0 0 0 0 0 0 26 0 0 0 0 0 0 0 37 0 0 0 0 27 0 0 0 0 0 34 
		30 0 0 21 0 0 0 0 0 31 0 0 0 40 0 22 0 0 0 28 0 0 0 0 26 0 0 0 0 34 20 0 0 0 0 0 0 0 0 0 0 0 0 0 0 0 0 22 0 0 0 0 0 0 0 0 0 0 0 0 
		31 0 0 0 0 34 0 0 0 0 0 0 0 0 0 0 0 0 0 0 0 0 26 0 0 0 0 0 0 0 0 0 0 0 0 0 0 0 0 0 0 0 26 0 25 0 0 0 0 0 0 0 0 0 0 0 0 0 0 0 
		32 0 0 0 0 23 28 0 0 0 0 0 0 0 0 0 0 0 23 0 0 0 0 0 0 0 0 0 0 0 0 0 0 0 0 0 0 0 0 0 0 0 0 0 0 36 24 0 0 0 0 0 0 0 0 0 0 38 0 0 
		33 0 40 0 0 0 0 0 0 0 0 0 0 0 0 0 32 0 0 0 0 23 0 0 0 0 23 0 25 0 0 0 0 0 0 0 33 0 0 0 23 36 0 0 0 0 0 0 0 0 0 0 0 0 32 0 0 0 0 0 
		34 0 0 0 0 0 0 39 0 0 0 0 0 0 0 0 0 0 0 0 0 0 0 0 0 36 0 0 0 0 0 0 0 0 0 0 0 0 0 0 0 0 0 0 26 0 0 0 0 0 0 0 0 0 25 0 0 0 0 37 
		35 35 0 0 0 0 0 0 0 0 0 0 0 0 0 0 0 0 0 23 0 0 0 0 0 0 40 0 0 30 0 0 0 0 33 0 0 0 0 0 0 38 0 0 0 0 0 0 22 0 35 31 0 0 0 0 37 0 0 0 
		36 0 0 35 0 23 0 0 0 0 0 0 20 0 0 0 0 0 0 36 0 37 0 0 0 0 0 0 0 0 0 0 0 0 0 0 0 0 0 0 0 0 0 0 0 0 0 0 0 0 0 0 0 0 0 0 0 0 0 0 
		37 0 0 0 0 0 0 0 0 0 0 0 0 0 0 0 0 0 0 0 0 23 0 0 0 0 0 0 0 0 0 0 0 0 0 0 0 0 0 0 0 0 0 0 23 0 0 29 0 0 30 0 21 0 0 0 0 0 0 0 
		38 0 0 0 0 0 0 0 0 0 0 0 0 0 35 0 0 0 0 0 0 0 0 0 0 0 0 0 0 0 0 0 0 0 0 0 0 0 0 0 0 0 0 0 0 27 0 0 0 26 0 0 0 0 0 0 0 0 0 0 
		39 0 0 0 0 0 0 0 27 37 0 0 0 0 0 0 0 0 0 0 0 0 0 0 0 0 29 0 0 26 26 0 0 0 23 0 0 0 0 0 0 0 0 31 0 0 0 28 0 0 0 0 0 0 0 31 0 0 0 0 
		40 24 0 0 0 0 0 0 0 0 35 21 0 0 0 0 26 0 0 0 0 0 0 0 0 0 0 0 0 21 0 0 0 0 36 0 38 0 0 0 0 0 0 0 0 0 0 0 0 0 0 0 0 0 0 0 0 0 0 0 
		41 0 0 0 0 0 0 0 0 0 0 0 0 0 0 0 0 0 0 27 0 0 0 0 0 0 0 0 0 36 0 0 26 0 0 0 0 0 0 0 0 0 0 0 0 0 40 0 0 0 38 0 0 0 0 0 0 0 0 0 
		42 0 0 0 0 0 0 29 0 38 0 0 28 0 0 0 0 0 0 0 0 0 0 0 0 0 0 0 0 0 0 0 0 0 0 0 0 0 0 0 31 0 0 0 0 24 0 0 0 0 0 0 0 37 0 20 26 0 0 0 
		43 0 0 0 0 28 0 0 0 0 0 0 0 0 0 0 0 0 0 0 0 0 0 0 0 0 0 0 0 0 0 0 25 0 0 26 0 0 23 0 0 0 0 0 0 0 0 0 0 0 0 0 0 0 29 0 30 0 0 0 
		44 0 0 0 0 0 0 0 0 39 0 0 0 0 0 0 0 0 0 0 0 0 0 37 0 0 0 31 0 0 0 0 0 36 0 0 0 0 0 27 0 0 0 24 0 0 0 0 0 0 0 0 0 0 0 0 0 0 20 0 
		45 0 0 0 0 0 23 34 0 0 0 0 0 24 0 0 0 0 0 24 0 0 0 0 0 0 0 0 0 0 0 0 0 24 0 0 0 0 0 0 0 0 40 0 0 0 0 0 0 0 0 0 0 0 0 36 0 0 0 0 
		46 0 0 0 0 0 0 0 0 24 20 0 0 0 0 0 32 0 0 0 0 0 0 34 0 32 0 23 31 35 0 22 0 0 0 0 0 0 29 0 28 0 0 0 0 0 0 0 0 0 0 0 0 0 0 0 0 0 30 0 
		47 0 39 0 0 0 0 0 0 0 0 0 0 23 0 21 0 0 0 0 0 0 0 0 0 0 32 0 0 0 37 0 0 0 0 0 22 0 0 0 0 0 0 0 0 0 0 0 0 0 32 0 0 0 0 0 22 0 0 0 
		48 0 0 0 0 0 0 0 0 0 0 0 0 0 0 0 0 0 30 0 0 0 0 0 0 0 0 0 0 0 0 0 0 0 0 0 0 0 0 26 0 0 0 0 0 0 0 0 0 0 0 0 24 0 0 0 0 22 36 32 
		49 0 0 0 0 0 0 0 0 0 0 0 0 24 0 0 0 0 0 0 0 21 0 0 0 0 0 0 0 27 0 0 0 0 0 0 35 0 30 0 0 0 38 0 0 0 0 0 32 0 0 0 0 0 0 0 0 0 27 0 
		50 0 0 0 20 0 30 0 0 0 0 0 0 0 0 0 0 0 0 0 0 0 0 0 0 0 0 0 0 29 0 0 0 0 0 0 31 0 0 0 0 0 0 0 0 0 0 0 0 0 0 0 0 0 0 0 0 0 0 0 
		51 0 0 35 0 23 0 0 0 0 0 0 0 0 0 0 0 0 0 0 0 0 0 0 0 0 0 0 0 25 0 0 0 0 0 0 0 0 21 0 0 0 0 0 0 0 0 0 0 24 0 0 0 0 0 0 29 0 38 0 
		52 0 0 0 0 0 0 0 24 0 0 0 0 0 0 0 0 0 0 34 0 0 0 0 0 0 0 0 0 0 27 0 0 0 0 0 0 0 0 0 0 0 0 37 0 0 0 0 0 0 0 0 0 0 34 0 0 0 0 0 
		53 0 0 0 0 0 0 0 0 0 0 0 0 0 0 0 0 0 0 0 0 0 0 0 27 0 0 0 0 0 0 0 0 0 32 25 0 0 0 0 0 0 0 0 29 0 0 0 0 0 0 0 0 34 0 0 0 0 0 0 
		54 0 0 0 0 26 0 0 0 0 0 0 0 0 0 0 0 0 0 30 0 0 22 0 0 0 0 0 0 0 0 0 0 0 0 0 0 0 0 0 31 0 0 20 0 0 36 0 0 0 0 0 0 0 0 0 20 0 0 0 
		55 0 0 0 0 0 0 0 0 33 0 0 39 0 0 0 0 0 0 0 0 0 0 0 0 0 0 0 0 0 0 0 0 0 0 0 37 0 0 0 0 0 0 26 30 0 0 0 22 0 0 0 29 0 0 20 0 0 0 0 
		56 0 0 0 0 0 0 0 0 0 0 0 0 0 0 0 0 0 0 0 0 0 0 0 0 0 0 0 0 0 0 0 0 38 0 0 0 0 0 0 0 0 0 0 0 0 0 0 0 22 0 0 0 0 0 0 0 0 0 0 
		57 0 0 0 0 0 0 0 0 0 27 0 0 0 0 0 0 0 0 0 0 0 0 0 0 0 0 0 0 0 0 0 0 0 0 0 0 0 0 0 0 0 0 0 0 20 0 30 0 36 27 0 38 0 0 0 0 0 0 0 
		58 0 0 0 0 0 24 0 35 33 0 0 0 0 0 0 0 0 0 0 34 0 0 0 0 0 0 0 0 0 34 0 0 0 0 37 0 0 0 0 0 0 0 0 0 0 0 0 0 32 0 0 0 0 0 0 0 0 0 0 
;
